decision_x1=[0,4];
decision_x2=[0,4];
decision_x3=[0,4];
decision_x4=[0,4];
decision_x5=[0,4];
random_y1=[0,4];
constraint_x2_x1=[
0,1,3.6|
0,2,7.6|
0,3,1.7|
0,4,2.7|
1,0,5.5|
1,2,1.5|
1,3,1.6|
1,4,4.9|
2,0,4.7|
2,1,9.6|
2,3,1.8|
2,4,9.3|
3,0,2|
3,1,8.5|
3,2,4.2|
3,4,1.9|
4,0,3.3|
4,1,3.1|
4,2,3.1|
4,3,8.4|
];
constraint_x3_x1=[
0,1,1.6|
0,2,5.3|
0,3,5.4|
0,4,4.8|
1,0,8.6|
1,2,0.12|
1,3,3.2|
1,4,8.4|
2,0,7.9|
2,1,4.5|
2,3,5.9|
2,4,0.53|
3,0,0.55|
3,1,9.7|
3,2,4.1|
3,4,9.7|
4,0,3.1|
4,1,4.9|
4,2,7.7|
4,3,2.3|
];
constraint_x4_x3=[
0,1,4.6|
0,2,4.9|
0,3,2.1|
0,4,7.1|
1,0,3.6|
1,2,1.7|
1,3,0.71|
1,4,8.5|
2,0,9.2|
2,1,3.1|
2,3,4.2|
2,4,6.7|
3,0,9|
3,1,9.7|
3,2,3.3|
3,4,6.9|
4,0,0.97|
4,1,8.9|
4,2,3.5|
4,3,2.2|
];
constraint_x5_x1=[
0,1,3.7|
0,2,2.6|
0,3,2.3|
0,4,2.2|
1,0,2.4|
1,2,7.8|
1,3,3.4|
1,4,6|
2,0,9.1|
2,1,0.23|
2,3,0.78|
2,4,4|
3,0,8.3|
3,1,2.7|
3,2,1.2|
3,4,1.7|
4,0,2.9|
4,1,9.2|
4,2,6.8|
4,3,1.9|
];
constraint_x5_x2=[
0,1,5.4|
0,2,4.1|
0,3,3.5|
0,4,4.8|
1,0,0.38|
1,2,9.8|
1,3,7.8|
1,4,2.9|
2,0,0.42|
2,1,3.5|
2,3,9.4|
2,4,4|
3,0,0.24|
3,1,6.1|
3,2,8.4|
3,4,3.2|
4,0,1.2|
4,1,8.2|
4,2,5.7|
4,3,4.6|
];
constraint_x1_y1=[
0,0,4.1|
0,1,9|
0,2,7.3|
0,3,2.3|
0,4,8.2|
1,0,0.21|
1,1,2.6|
1,2,2.6|
1,3,8.3|
1,4,7|
2,0,5.5|
2,1,0.46|
2,2,9.2|
2,3,2.2|
2,4,2.3|
3,0,7.3|
3,1,3.6|
3,2,9.9|
3,3,0.85|
3,4,6.3|
4,0,3|
4,1,7.1|
4,2,7.6|
4,3,4.7|
4,4,3.1|
];
initial_distribution_y1=[0.34,0.041,0.05,0.13,0.44];
transition_y1=[
0.11,0.28,0.26,0.097,0.25|
0.21,0.13,0.27,0.18,0.22|
0.055,0.35,0.39,0.18,0.027|
0.32,0.2,0.32,0.15,0.0098|
0.33,0.083,0.015,0.2,0.37|
];
